c description: Graph pigeonhole principle formula on fast_gnp_random_graph(10,25,0.9)
c generator: CNFgen (0.9.0)
c copyright: (C) 2012-2020 Massimo Lauria <massimo.lauria@uniroma1.it>
c url: https://massimolauria.net/cnfgen
c
p cnf 218 863
1 2 3 4 5 6 7 8 9 10 11 12 13 14 15 16 17 18 19 20 21 0
22 23 24 25 26 27 28 29 30 31 32 33 34 35 36 37 38 39 40 41 42 43 44 0
45 46 47 48 49 50 51 52 53 54 55 56 57 58 59 60 61 62 63 64 65 66 0
67 68 69 70 71 72 73 74 75 76 77 78 79 80 81 82 83 84 85 86 87 0
88 89 90 91 92 93 94 95 96 97 98 99 100 101 102 103 104 105 106 107 108 109 110 0
111 112 113 114 115 116 117 118 119 120 121 122 123 124 125 126 127 128 129 130 0
131 132 133 134 135 136 137 138 139 140 141 142 143 144 145 146 147 148 149 150 151 152 153 0
154 155 156 157 158 159 160 161 162 163 164 165 166 167 168 169 170 171 172 173 174 175 176 0
177 178 179 180 181 182 183 184 185 186 187 188 189 190 191 192 193 194 195 196 0
197 198 199 200 201 202 203 204 205 206 207 208 209 210 211 212 213 214 215 216 217 218 0
-1 -22 0
-1 -67 0
-1 -88 0
-1 -111 0
-1 -154 0
-1 -177 0
-1 -197 0
-22 -67 0
-22 -88 0
-22 -111 0
-22 -154 0
-22 -177 0
-22 -197 0
-67 -88 0
-67 -111 0
-67 -154 0
-67 -177 0
-67 -197 0
-88 -111 0
-88 -154 0
-88 -177 0
-88 -197 0
-111 -154 0
-111 -177 0
-111 -197 0
-154 -177 0
-154 -197 0
-177 -197 0
-23 -45 0
-23 -68 0
-23 -89 0
-23 -131 0
-23 -155 0
-23 -198 0
-45 -68 0
-45 -89 0
-45 -131 0
-45 -155 0
-45 -198 0
-68 -89 0
-68 -131 0
-68 -155 0
-68 -198 0
-89 -131 0
-89 -155 0
-89 -198 0
-131 -155 0
-131 -198 0
-155 -198 0
-2 -46 0
-2 -69 0
-2 -90 0
-2 -112 0
-2 -132 0
-2 -156 0
-2 -178 0
-2 -199 0
-46 -69 0
-46 -90 0
-46 -112 0
-46 -132 0
-46 -156 0
-46 -178 0
-46 -199 0
-69 -90 0
-69 -112 0
-69 -132 0
-69 -156 0
-69 -178 0
-69 -199 0
-90 -112 0
-90 -132 0
-90 -156 0
-90 -178 0
-90 -199 0
-112 -132 0
-112 -156 0
-112 -178 0
-112 -199 0
-132 -156 0
-132 -178 0
-132 -199 0
-156 -178 0
-156 -199 0
-178 -199 0
-3 -70 0
-3 -91 0
-3 -113 0
-3 -133 0
-3 -157 0
-3 -200 0
-70 -91 0
-70 -113 0
-70 -133 0
-70 -157 0
-70 -200 0
-91 -113 0
-91 -133 0
-91 -157 0
-91 -200 0
-113 -133 0
-113 -157 0
-113 -200 0
-133 -157 0
-133 -200 0
-157 -200 0
-4 -24 0
-4 -47 0
-4 -71 0
-4 -92 0
-4 -114 0
-4 -134 0
-4 -158 0
-24 -47 0
-24 -71 0
-24 -92 0
-24 -114 0
-24 -134 0
-24 -158 0
-47 -71 0
-47 -92 0
-47 -114 0
-47 -134 0
-47 -158 0
-71 -92 0
-71 -114 0
-71 -134 0
-71 -158 0
-92 -114 0
-92 -134 0
-92 -158 0
-114 -134 0
-114 -158 0
-134 -158 0
-5 -25 0
-5 -48 0
-5 -72 0
-5 -115 0
-5 -135 0
-5 -179 0
-5 -201 0
-25 -48 0
-25 -72 0
-25 -115 0
-25 -135 0
-25 -179 0
-25 -201 0
-48 -72 0
-48 -115 0
-48 -135 0
-48 -179 0
-48 -201 0
-72 -115 0
-72 -135 0
-72 -179 0
-72 -201 0
-115 -135 0
-115 -179 0
-115 -201 0
-135 -179 0
-135 -201 0
-179 -201 0
-6 -26 0
-6 -49 0
-6 -93 0
-6 -116 0
-6 -136 0
-6 -159 0
-6 -180 0
-6 -202 0
-26 -49 0
-26 -93 0
-26 -116 0
-26 -136 0
-26 -159 0
-26 -180 0
-26 -202 0
-49 -93 0
-49 -116 0
-49 -136 0
-49 -159 0
-49 -180 0
-49 -202 0
-93 -116 0
-93 -136 0
-93 -159 0
-93 -180 0
-93 -202 0
-116 -136 0
-116 -159 0
-116 -180 0
-116 -202 0
-136 -159 0
-136 -180 0
-136 -202 0
-159 -180 0
-159 -202 0
-180 -202 0
-7 -27 0
-7 -50 0
-7 -73 0
-7 -94 0
-7 -137 0
-7 -160 0
-7 -181 0
-7 -203 0
-27 -50 0
-27 -73 0
-27 -94 0
-27 -137 0
-27 -160 0
-27 -181 0
-27 -203 0
-50 -73 0
-50 -94 0
-50 -137 0
-50 -160 0
-50 -181 0
-50 -203 0
-73 -94 0
-73 -137 0
-73 -160 0
-73 -181 0
-73 -203 0
-94 -137 0
-94 -160 0
-94 -181 0
-94 -203 0
-137 -160 0
-137 -181 0
-137 -203 0
-160 -181 0
-160 -203 0
-181 -203 0
-8 -28 0
-8 -51 0
-8 -74 0
-8 -95 0
-8 -117 0
-8 -138 0
-8 -161 0
-8 -182 0
-28 -51 0
-28 -74 0
-28 -95 0
-28 -117 0
-28 -138 0
-28 -161 0
-28 -182 0
-51 -74 0
-51 -95 0
-51 -117 0
-51 -138 0
-51 -161 0
-51 -182 0
-74 -95 0
-74 -117 0
-74 -138 0
-74 -161 0
-74 -182 0
-95 -117 0
-95 -138 0
-95 -161 0
-95 -182 0
-117 -138 0
-117 -161 0
-117 -182 0
-138 -161 0
-138 -182 0
-161 -182 0
-9 -29 0
-9 -52 0
-9 -96 0
-9 -139 0
-9 -162 0
-9 -183 0
-9 -204 0
-29 -52 0
-29 -96 0
-29 -139 0
-29 -162 0
-29 -183 0
-29 -204 0
-52 -96 0
-52 -139 0
-52 -162 0
-52 -183 0
-52 -204 0
-96 -139 0
-96 -162 0
-96 -183 0
-96 -204 0
-139 -162 0
-139 -183 0
-139 -204 0
-162 -183 0
-162 -204 0
-183 -204 0
-10 -30 0
-10 -53 0
-10 -75 0
-10 -118 0
-10 -140 0
-10 -184 0
-10 -205 0
-30 -53 0
-30 -75 0
-30 -118 0
-30 -140 0
-30 -184 0
-30 -205 0
-53 -75 0
-53 -118 0
-53 -140 0
-53 -184 0
-53 -205 0
-75 -118 0
-75 -140 0
-75 -184 0
-75 -205 0
-118 -140 0
-118 -184 0
-118 -205 0
-140 -184 0
-140 -205 0
-184 -205 0
-11 -31 0
-11 -54 0
-11 -76 0
-11 -97 0
-11 -119 0
-11 -163 0
-11 -185 0
-11 -206 0
-31 -54 0
-31 -76 0
-31 -97 0
-31 -119 0
-31 -163 0
-31 -185 0
-31 -206 0
-54 -76 0
-54 -97 0
-54 -119 0
-54 -163 0
-54 -185 0
-54 -206 0
-76 -97 0
-76 -119 0
-76 -163 0
-76 -185 0
-76 -206 0
-97 -119 0
-97 -163 0
-97 -185 0
-97 -206 0
-119 -163 0
-119 -185 0
-119 -206 0
-163 -185 0
-163 -206 0
-185 -206 0
-32 -55 0
-32 -77 0
-32 -98 0
-32 -120 0
-32 -141 0
-32 -164 0
-32 -186 0
-32 -207 0
-55 -77 0
-55 -98 0
-55 -120 0
-55 -141 0
-55 -164 0
-55 -186 0
-55 -207 0
-77 -98 0
-77 -120 0
-77 -141 0
-77 -164 0
-77 -186 0
-77 -207 0
-98 -120 0
-98 -141 0
-98 -164 0
-98 -186 0
-98 -207 0
-120 -141 0
-120 -164 0
-120 -186 0
-120 -207 0
-141 -164 0
-141 -186 0
-141 -207 0
-164 -186 0
-164 -207 0
-186 -207 0
-12 -33 0
-12 -56 0
-12 -78 0
-12 -99 0
-12 -121 0
-12 -142 0
-12 -165 0
-12 -208 0
-33 -56 0
-33 -78 0
-33 -99 0
-33 -121 0
-33 -142 0
-33 -165 0
-33 -208 0
-56 -78 0
-56 -99 0
-56 -121 0
-56 -142 0
-56 -165 0
-56 -208 0
-78 -99 0
-78 -121 0
-78 -142 0
-78 -165 0
-78 -208 0
-99 -121 0
-99 -142 0
-99 -165 0
-99 -208 0
-121 -142 0
-121 -165 0
-121 -208 0
-142 -165 0
-142 -208 0
-165 -208 0
-13 -34 0
-13 -79 0
-13 -100 0
-13 -122 0
-13 -143 0
-13 -166 0
-13 -209 0
-34 -79 0
-34 -100 0
-34 -122 0
-34 -143 0
-34 -166 0
-34 -209 0
-79 -100 0
-79 -122 0
-79 -143 0
-79 -166 0
-79 -209 0
-100 -122 0
-100 -143 0
-100 -166 0
-100 -209 0
-122 -143 0
-122 -166 0
-122 -209 0
-143 -166 0
-143 -209 0
-166 -209 0
-14 -35 0
-14 -57 0
-14 -101 0
-14 -123 0
-14 -144 0
-14 -167 0
-14 -187 0
-14 -210 0
-35 -57 0
-35 -101 0
-35 -123 0
-35 -144 0
-35 -167 0
-35 -187 0
-35 -210 0
-57 -101 0
-57 -123 0
-57 -144 0
-57 -167 0
-57 -187 0
-57 -210 0
-101 -123 0
-101 -144 0
-101 -167 0
-101 -187 0
-101 -210 0
-123 -144 0
-123 -167 0
-123 -187 0
-123 -210 0
-144 -167 0
-144 -187 0
-144 -210 0
-167 -187 0
-167 -210 0
-187 -210 0
-15 -36 0
-15 -58 0
-15 -80 0
-15 -102 0
-15 -124 0
-15 -145 0
-15 -168 0
-15 -188 0
-15 -211 0
-36 -58 0
-36 -80 0
-36 -102 0
-36 -124 0
-36 -145 0
-36 -168 0
-36 -188 0
-36 -211 0
-58 -80 0
-58 -102 0
-58 -124 0
-58 -145 0
-58 -168 0
-58 -188 0
-58 -211 0
-80 -102 0
-80 -124 0
-80 -145 0
-80 -168 0
-80 -188 0
-80 -211 0
-102 -124 0
-102 -145 0
-102 -168 0
-102 -188 0
-102 -211 0
-124 -145 0
-124 -168 0
-124 -188 0
-124 -211 0
-145 -168 0
-145 -188 0
-145 -211 0
-168 -188 0
-168 -211 0
-188 -211 0
-16 -37 0
-16 -59 0
-16 -81 0
-16 -103 0
-16 -146 0
-16 -169 0
-16 -189 0
-16 -212 0
-37 -59 0
-37 -81 0
-37 -103 0
-37 -146 0
-37 -169 0
-37 -189 0
-37 -212 0
-59 -81 0
-59 -103 0
-59 -146 0
-59 -169 0
-59 -189 0
-59 -212 0
-81 -103 0
-81 -146 0
-81 -169 0
-81 -189 0
-81 -212 0
-103 -146 0
-103 -169 0
-103 -189 0
-103 -212 0
-146 -169 0
-146 -189 0
-146 -212 0
-169 -189 0
-169 -212 0
-189 -212 0
-17 -38 0
-17 -60 0
-17 -82 0
-17 -104 0
-17 -125 0
-17 -147 0
-17 -170 0
-17 -190 0
-17 -213 0
-38 -60 0
-38 -82 0
-38 -104 0
-38 -125 0
-38 -147 0
-38 -170 0
-38 -190 0
-38 -213 0
-60 -82 0
-60 -104 0
-60 -125 0
-60 -147 0
-60 -170 0
-60 -190 0
-60 -213 0
-82 -104 0
-82 -125 0
-82 -147 0
-82 -170 0
-82 -190 0
-82 -213 0
-104 -125 0
-104 -147 0
-104 -170 0
-104 -190 0
-104 -213 0
-125 -147 0
-125 -170 0
-125 -190 0
-125 -213 0
-147 -170 0
-147 -190 0
-147 -213 0
-170 -190 0
-170 -213 0
-190 -213 0
-39 -61 0
-39 -105 0
-39 -126 0
-39 -148 0
-39 -171 0
-39 -191 0
-39 -214 0
-61 -105 0
-61 -126 0
-61 -148 0
-61 -171 0
-61 -191 0
-61 -214 0
-105 -126 0
-105 -148 0
-105 -171 0
-105 -191 0
-105 -214 0
-126 -148 0
-126 -171 0
-126 -191 0
-126 -214 0
-148 -171 0
-148 -191 0
-148 -214 0
-171 -191 0
-171 -214 0
-191 -214 0
-18 -40 0
-18 -62 0
-18 -83 0
-18 -106 0
-18 -127 0
-18 -149 0
-18 -172 0
-18 -192 0
-18 -215 0
-40 -62 0
-40 -83 0
-40 -106 0
-40 -127 0
-40 -149 0
-40 -172 0
-40 -192 0
-40 -215 0
-62 -83 0
-62 -106 0
-62 -127 0
-62 -149 0
-62 -172 0
-62 -192 0
-62 -215 0
-83 -106 0
-83 -127 0
-83 -149 0
-83 -172 0
-83 -192 0
-83 -215 0
-106 -127 0
-106 -149 0
-106 -172 0
-106 -192 0
-106 -215 0
-127 -149 0
-127 -172 0
-127 -192 0
-127 -215 0
-149 -172 0
-149 -192 0
-149 -215 0
-172 -192 0
-172 -215 0
-192 -215 0
-19 -41 0
-19 -63 0
-19 -84 0
-19 -107 0
-19 -128 0
-19 -150 0
-19 -173 0
-19 -193 0
-19 -216 0
-41 -63 0
-41 -84 0
-41 -107 0
-41 -128 0
-41 -150 0
-41 -173 0
-41 -193 0
-41 -216 0
-63 -84 0
-63 -107 0
-63 -128 0
-63 -150 0
-63 -173 0
-63 -193 0
-63 -216 0
-84 -107 0
-84 -128 0
-84 -150 0
-84 -173 0
-84 -193 0
-84 -216 0
-107 -128 0
-107 -150 0
-107 -173 0
-107 -193 0
-107 -216 0
-128 -150 0
-128 -173 0
-128 -193 0
-128 -216 0
-150 -173 0
-150 -193 0
-150 -216 0
-173 -193 0
-173 -216 0
-193 -216 0
-42 -64 0
-42 -85 0
-42 -108 0
-42 -151 0
-42 -174 0
-42 -194 0
-64 -85 0
-64 -108 0
-64 -151 0
-64 -174 0
-64 -194 0
-85 -108 0
-85 -151 0
-85 -174 0
-85 -194 0
-108 -151 0
-108 -174 0
-108 -194 0
-151 -174 0
-151 -194 0
-174 -194 0
-20 -43 0
-20 -65 0
-20 -86 0
-20 -109 0
-20 -129 0
-20 -152 0
-20 -175 0
-20 -195 0
-20 -217 0
-43 -65 0
-43 -86 0
-43 -109 0
-43 -129 0
-43 -152 0
-43 -175 0
-43 -195 0
-43 -217 0
-65 -86 0
-65 -109 0
-65 -129 0
-65 -152 0
-65 -175 0
-65 -195 0
-65 -217 0
-86 -109 0
-86 -129 0
-86 -152 0
-86 -175 0
-86 -195 0
-86 -217 0
-109 -129 0
-109 -152 0
-109 -175 0
-109 -195 0
-109 -217 0
-129 -152 0
-129 -175 0
-129 -195 0
-129 -217 0
-152 -175 0
-152 -195 0
-152 -217 0
-175 -195 0
-175 -217 0
-195 -217 0
-21 -44 0
-21 -66 0
-21 -87 0
-21 -110 0
-21 -130 0
-21 -153 0
-21 -176 0
-21 -196 0
-21 -218 0
-44 -66 0
-44 -87 0
-44 -110 0
-44 -130 0
-44 -153 0
-44 -176 0
-44 -196 0
-44 -218 0
-66 -87 0
-66 -110 0
-66 -130 0
-66 -153 0
-66 -176 0
-66 -196 0
-66 -218 0
-87 -110 0
-87 -130 0
-87 -153 0
-87 -176 0
-87 -196 0
-87 -218 0
-110 -130 0
-110 -153 0
-110 -176 0
-110 -196 0
-110 -218 0
-130 -153 0
-130 -176 0
-130 -196 0
-130 -218 0
-153 -176 0
-153 -196 0
-153 -218 0
-176 -196 0
-176 -218 0
-196 -218 0